# AMPL MODEL: ./res/solid.ampl

# Timestamp: 17 February 2025, 10:25:41 AM

param MAXWORK := 32;

param:
TNAME: TWORK :=
'golf2.sf' 40
'golf2.sm' 80
'tango2.se' 240
'tango2.sf' 80
'tango2.sm' 240
'victor2.se' 80
'victor2.sf' 40
'victor2.sm' 80;

set TSCOPE['golf2.sf'] :=
84 85 86 87 88 91
;

set TSCOPE['golf2.sm'] :=
3 4 7 8 9 10 11 14 15 16 17 18 21 22 23 24 25 28 29 30 31 32 35 36 37 38 39 42 43 44 45 46 49 50 51 52 53 56 57 58 59 60 63 64 65 66 67 70 71 72
73 74 77 78 79 80 81
;

set TSCOPE['tango2.se'] :=
35 36 37 38 39 42 43 44 45 46
;

set TSCOPE['tango2.sf'] :=
260 261 262 263 266 267 268 269 270 273 274 275
;

set TSCOPE['tango2.sm'] :=
49 50 51 52 53 56 57 58 59 60 63 64 65 66 67 70 71 72 73 74 77 78 79 80 81 84 85 86 87 88 91 92 93 94 95 98 99 100 101 102 105 106 107 108 109 112 113 114 115 116
119 120 121 123 126 127 128 129 130 133 134 135 136 137 140 141 142 143 144 147 148 149 150 151 154 155 156 157 158 161 162 163 164 165 168 169 170 171 172 175 176 177 178 179 182 183 184 185 186 189
190 191 192 193 196 197 198 199 200 203 204 205 206 207 210 211 212 213 214 217 218 219 220 221 224 225 226 227 228 231 232 233 234 235 238 239 240 241 242 245 246 247 248 249 252 253 254 255 256 259
;

set TSCOPE['victor2.se'] :=
49 50 51 52 53 56 57 58 59 60
;

set TSCOPE['victor2.sf'] :=
234 235 238 239 240 241 242 245
;

set TSCOPE['victor2.sm'] :=
63 64 65 66 67 70 71 72 73 74 77 78 79 80 81 84 85 86 87 88 91 92 93 94 95 98 99 100 101 102 105 106 107 108 109 112 113 114 115 116 119 120 121 123 126 127 128 129 130 133
134 135 136 137 140 141 142 143 144 147 148 149 150 151 154 155 156 157 158 161 162 163 164 165 168 169 170 171 172 175 176 177 178 179 182 183 184 185 186 189 190 191 192 193 196 197 198 199 200 203
204 205 206 207 210 211 212 213 214 217 218 219 220 221 224 225 226 227 228 231 232 233
;

set ENAME :=
'SA.Peter';

set ASSIGN :=
('SA.Peter',*)
'golf2.sf'
'golf2.sm'
'tango2.se'
'tango2.sf'
'tango2.sm'
'victor2.se'
'victor2.sf'
'victor2.sm';

param:
XBID: XBEXPERT XBTASK XBS XBE XBL XBU :=
1 'SA.Peter' 'golf2.sf' 83 91 6 7
2 'SA.Peter' 'golf2.sm' 2 82 1 2
3 'SA.Peter' 'tango2.se' 33 48 24 25
4 'SA.Peter' 'tango2.sf' 260 275 6 7
5 'SA.Peter' 'tango2.sm' 49 259 1 2
6 'SA.Peter' 'victor2.se' 47 62 8 9
7 'SA.Peter' 'victor2.sf' 234 245 5 6
8 'SA.Peter' 'victor2.sm' 63 233 0 1;

param:
EBID: EBEXPERT EBS EBE EBL EBU :=
;

param:
PNAME: PERS PERE :=
'Jan.25' 1 16
'Feb.25' 17 45
'Mar.25' 46 76
'Apr.25' 77 105
'May.25' 106 139
'Jun.25' 140 170
'Jul.25' 171 199
'Aug.25' 200 230
'Sep.25' 231 259
'Oct.25' 260 289
'Nov.25' 290 317
'Dec.25' 318 346;

param:
EXPPER: PBL PBU :=
['SA.Peter',*]
'Apr.25' 0 720
'Aug.25' 0 720
'Dec.25' 0 720
'Feb.25' 0 720
'Jan.25' 0 720
'Jul.25' 0 720
'Jun.25' 0 720
'Mar.25' 0 720
'May.25' 0 720
'Nov.25' 0 720
'Oct.25' 0 720
'Sep.25' 0 720;

